; Options: -in -smt2
(set-option :produce-unsat-assumptions true)

(declare-fun start!3011 () Bool)

(assert start!3011)

(declare-fun b_free!73 () Bool)

(declare-fun b_next!73 () Bool)

(assert (=> start!3011 (= b_free!73 (not b_next!73))))

(declare-fun tp!110 () Bool)

(declare-fun b_and!655 () Bool)

(assert (=> start!3011 (= tp!110 b_and!655)))

(declare-fun b!17292 () Bool)

(declare-fun res!13847 () Bool)

(declare-fun e!9266 () Bool)

(assert (=> b!17292 (=> (not res!13847) (not e!9266))))

(declare-fun P!5 () Int)

(declare-datatypes ((array!1416 0))(
  ( (array!1417 (arr!625 (Array (_ BitVec 32) (_ FloatingPoint 11 53))) (size!625 (_ BitVec 32))) )
))
(declare-fun a!12 () array!1416)

(declare-fun dynLambda!75 (Int (_ FloatingPoint 11 53)) Bool)

(assert (=> b!17292 (= res!13847 (dynLambda!75 P!5 (select (arr!625 a!12) #b00000000000000000000000000000011)))))

(declare-fun b!17293 () Bool)

(declare-fun res!13853 () Bool)

(assert (=> b!17293 (=> (not res!13853) (not e!9266))))

(assert (=> b!17293 (= res!13853 (dynLambda!75 P!5 (select (arr!625 a!12) #b00000000000000000000000000000010)))))

(declare-fun b!17294 () Bool)

(declare-fun res!13845 () Bool)

(assert (=> b!17294 (=> (not res!13845) (not e!9266))))

(assert (=> b!17294 (= res!13845 (dynLambda!75 P!5 (select (arr!625 a!12) #b00000000000000000000000000000001)))))

(declare-fun b!17295 () Bool)

(declare-fun res!13850 () Bool)

(assert (=> b!17295 (=> (not res!13850) (not e!9266))))

(assert (=> b!17295 (= res!13850 (dynLambda!75 P!5 (select (arr!625 a!12) #b00000000000000000000000000000110)))))

(declare-fun res!13849 () Bool)

(assert (=> start!3011 (=> (not res!13849) (not e!9266))))

(assert (=> start!3011 (= res!13849 (= (size!625 a!12) #b00000000000000000000000000010100))))

(assert (=> start!3011 e!9266))

(declare-fun array_inv!573 (array!1416) Bool)

(assert (=> start!3011 (array_inv!573 a!12)))

(assert (=> start!3011 tp!110))

(declare-fun b!17296 () Bool)

(declare-fun res!13848 () Bool)

(assert (=> b!17296 (=> (not res!13848) (not e!9266))))

(assert (=> b!17296 (= res!13848 (dynLambda!75 P!5 (select (arr!625 a!12) #b00000000000000000000000000001101)))))

(declare-fun b!17297 () Bool)

(declare-fun res!13852 () Bool)

(assert (=> b!17297 (=> (not res!13852) (not e!9266))))

(assert (=> b!17297 (= res!13852 (dynLambda!75 P!5 (select (arr!625 a!12) #b00000000000000000000000000001100)))))

(declare-fun b!17298 () Bool)

(assert (=> b!17298 (= e!9266 (bvsge #b00000000000000000000000000001110 (size!625 a!12)))))

(declare-fun b!17299 () Bool)

(declare-fun res!13842 () Bool)

(assert (=> b!17299 (=> (not res!13842) (not e!9266))))

(assert (=> b!17299 (= res!13842 (dynLambda!75 P!5 (select (arr!625 a!12) #b00000000000000000000000000001010)))))

(declare-fun b!17300 () Bool)

(declare-fun res!13840 () Bool)

(assert (=> b!17300 (=> (not res!13840) (not e!9266))))

(assert (=> b!17300 (= res!13840 (dynLambda!75 P!5 (select (arr!625 a!12) #b00000000000000000000000000000101)))))

(declare-fun b!17301 () Bool)

(declare-fun res!13843 () Bool)

(assert (=> b!17301 (=> (not res!13843) (not e!9266))))

(assert (=> b!17301 (= res!13843 (dynLambda!75 P!5 (select (arr!625 a!12) #b00000000000000000000000000001001)))))

(declare-fun b!17302 () Bool)

(declare-fun res!13851 () Bool)

(assert (=> b!17302 (=> (not res!13851) (not e!9266))))

(assert (=> b!17302 (= res!13851 (dynLambda!75 P!5 (select (arr!625 a!12) #b00000000000000000000000000000100)))))

(declare-fun b!17303 () Bool)

(declare-fun res!13841 () Bool)

(assert (=> b!17303 (=> (not res!13841) (not e!9266))))

(assert (=> b!17303 (= res!13841 (dynLambda!75 P!5 (select (arr!625 a!12) #b00000000000000000000000000001000)))))

(declare-fun b!17304 () Bool)

(declare-fun res!13854 () Bool)

(assert (=> b!17304 (=> (not res!13854) (not e!9266))))

(assert (=> b!17304 (= res!13854 (dynLambda!75 P!5 (select (arr!625 a!12) #b00000000000000000000000000001011)))))

(declare-fun b!17305 () Bool)

(declare-fun res!13846 () Bool)

(assert (=> b!17305 (=> (not res!13846) (not e!9266))))

(assert (=> b!17305 (= res!13846 (dynLambda!75 P!5 (select (arr!625 a!12) #b00000000000000000000000000000111)))))

(declare-fun b!17306 () Bool)

(declare-fun res!13844 () Bool)

(assert (=> b!17306 (=> (not res!13844) (not e!9266))))

(assert (=> b!17306 (= res!13844 (dynLambda!75 P!5 (select (arr!625 a!12) #b00000000000000000000000000000000)))))

(assert (= (and start!3011 res!13849) b!17306))

(assert (= (and b!17306 res!13844) b!17294))

(assert (= (and b!17294 res!13845) b!17293))

(assert (= (and b!17293 res!13853) b!17292))

(assert (= (and b!17292 res!13847) b!17302))

(assert (= (and b!17302 res!13851) b!17300))

(assert (= (and b!17300 res!13840) b!17295))

(assert (= (and b!17295 res!13850) b!17305))

(assert (= (and b!17305 res!13846) b!17303))

(assert (= (and b!17303 res!13841) b!17301))

(assert (= (and b!17301 res!13843) b!17299))

(assert (= (and b!17299 res!13842) b!17304))

(assert (= (and b!17304 res!13854) b!17297))

(assert (= (and b!17297 res!13852) b!17296))

(assert (= (and b!17296 res!13848) b!17298))

(declare-fun b_lambda!7163 () Bool)

(assert (=> (not b_lambda!7163) (not b!17304)))

(declare-fun t!773 () Bool)

(declare-fun tb!583 () Bool)

(assert (=> (and start!3011 (= P!5 P!5) t!773) tb!583))

(declare-fun result!583 () Bool)

(assert (=> tb!583 (= result!583 true)))

(assert (=> b!17304 t!773))

(declare-fun b_and!657 () Bool)

(assert (= b_and!655 (and (=> t!773 result!583) b_and!657)))

(declare-fun b_lambda!7165 () Bool)

(assert (=> (not b_lambda!7165) (not b!17306)))

(declare-fun t!775 () Bool)

(declare-fun tb!585 () Bool)

(assert (=> (and start!3011 (= P!5 P!5) t!775) tb!585))

(declare-fun result!585 () Bool)

(assert (=> tb!585 (= result!585 true)))

(assert (=> b!17306 t!775))

(declare-fun b_and!659 () Bool)

(assert (= b_and!657 (and (=> t!775 result!585) b_and!659)))

(declare-fun b_lambda!7167 () Bool)

(assert (=> (not b_lambda!7167) (not b!17296)))

(declare-fun t!777 () Bool)

(declare-fun tb!587 () Bool)

(assert (=> (and start!3011 (= P!5 P!5) t!777) tb!587))

(declare-fun result!587 () Bool)

(assert (=> tb!587 (= result!587 true)))

(assert (=> b!17296 t!777))

(declare-fun b_and!661 () Bool)

(assert (= b_and!659 (and (=> t!777 result!587) b_and!661)))

(declare-fun b_lambda!7169 () Bool)

(assert (=> (not b_lambda!7169) (not b!17303)))

(declare-fun t!779 () Bool)

(declare-fun tb!589 () Bool)

(assert (=> (and start!3011 (= P!5 P!5) t!779) tb!589))

(declare-fun result!589 () Bool)

(assert (=> tb!589 (= result!589 true)))

(assert (=> b!17303 t!779))

(declare-fun b_and!663 () Bool)

(assert (= b_and!661 (and (=> t!779 result!589) b_and!663)))

(declare-fun b_lambda!7171 () Bool)

(assert (=> (not b_lambda!7171) (not b!17293)))

(declare-fun t!781 () Bool)

(declare-fun tb!591 () Bool)

(assert (=> (and start!3011 (= P!5 P!5) t!781) tb!591))

(declare-fun result!591 () Bool)

(assert (=> tb!591 (= result!591 true)))

(assert (=> b!17293 t!781))

(declare-fun b_and!665 () Bool)

(assert (= b_and!663 (and (=> t!781 result!591) b_and!665)))

(declare-fun b_lambda!7173 () Bool)

(assert (=> (not b_lambda!7173) (not b!17299)))

(declare-fun t!783 () Bool)

(declare-fun tb!593 () Bool)

(assert (=> (and start!3011 (= P!5 P!5) t!783) tb!593))

(declare-fun result!593 () Bool)

(assert (=> tb!593 (= result!593 true)))

(assert (=> b!17299 t!783))

(declare-fun b_and!667 () Bool)

(assert (= b_and!665 (and (=> t!783 result!593) b_and!667)))

(declare-fun b_lambda!7175 () Bool)

(assert (=> (not b_lambda!7175) (not b!17295)))

(declare-fun t!785 () Bool)

(declare-fun tb!595 () Bool)

(assert (=> (and start!3011 (= P!5 P!5) t!785) tb!595))

(declare-fun result!595 () Bool)

(assert (=> tb!595 (= result!595 true)))

(assert (=> b!17295 t!785))

(declare-fun b_and!669 () Bool)

(assert (= b_and!667 (and (=> t!785 result!595) b_and!669)))

(declare-fun b_lambda!7177 () Bool)

(assert (=> (not b_lambda!7177) (not b!17300)))

(declare-fun t!787 () Bool)

(declare-fun tb!597 () Bool)

(assert (=> (and start!3011 (= P!5 P!5) t!787) tb!597))

(declare-fun result!597 () Bool)

(assert (=> tb!597 (= result!597 true)))

(assert (=> b!17300 t!787))

(declare-fun b_and!671 () Bool)

(assert (= b_and!669 (and (=> t!787 result!597) b_and!671)))

(declare-fun b_lambda!7179 () Bool)

(assert (=> (not b_lambda!7179) (not b!17292)))

(declare-fun t!789 () Bool)

(declare-fun tb!599 () Bool)

(assert (=> (and start!3011 (= P!5 P!5) t!789) tb!599))

(declare-fun result!599 () Bool)

(assert (=> tb!599 (= result!599 true)))

(assert (=> b!17292 t!789))

(declare-fun b_and!673 () Bool)

(assert (= b_and!671 (and (=> t!789 result!599) b_and!673)))

(declare-fun b_lambda!7181 () Bool)

(assert (=> (not b_lambda!7181) (not b!17297)))

(declare-fun t!791 () Bool)

(declare-fun tb!601 () Bool)

(assert (=> (and start!3011 (= P!5 P!5) t!791) tb!601))

(declare-fun result!601 () Bool)

(assert (=> tb!601 (= result!601 true)))

(assert (=> b!17297 t!791))

(declare-fun b_and!675 () Bool)

(assert (= b_and!673 (and (=> t!791 result!601) b_and!675)))

(declare-fun b_lambda!7183 () Bool)

(assert (=> (not b_lambda!7183) (not b!17301)))

(declare-fun t!793 () Bool)

(declare-fun tb!603 () Bool)

(assert (=> (and start!3011 (= P!5 P!5) t!793) tb!603))

(declare-fun result!603 () Bool)

(assert (=> tb!603 (= result!603 true)))

(assert (=> b!17301 t!793))

(declare-fun b_and!677 () Bool)

(assert (= b_and!675 (and (=> t!793 result!603) b_and!677)))

(declare-fun b_lambda!7185 () Bool)

(assert (=> (not b_lambda!7185) (not b!17302)))

(declare-fun t!795 () Bool)

(declare-fun tb!605 () Bool)

(assert (=> (and start!3011 (= P!5 P!5) t!795) tb!605))

(declare-fun result!605 () Bool)

(assert (=> tb!605 (= result!605 true)))

(assert (=> b!17302 t!795))

(declare-fun b_and!679 () Bool)

(assert (= b_and!677 (and (=> t!795 result!605) b_and!679)))

(declare-fun b_lambda!7187 () Bool)

(assert (=> (not b_lambda!7187) (not b!17294)))

(declare-fun t!797 () Bool)

(declare-fun tb!607 () Bool)

(assert (=> (and start!3011 (= P!5 P!5) t!797) tb!607))

(declare-fun result!607 () Bool)

(assert (=> tb!607 (= result!607 true)))

(assert (=> b!17294 t!797))

(declare-fun b_and!681 () Bool)

(assert (= b_and!679 (and (=> t!797 result!607) b_and!681)))

(declare-fun b_lambda!7189 () Bool)

(assert (=> (not b_lambda!7189) (not b!17305)))

(declare-fun t!799 () Bool)

(declare-fun tb!609 () Bool)

(assert (=> (and start!3011 (= P!5 P!5) t!799) tb!609))

(declare-fun result!609 () Bool)

(assert (=> tb!609 (= result!609 true)))

(assert (=> b!17305 t!799))

(declare-fun b_and!683 () Bool)

(assert (= b_and!681 (and (=> t!799 result!609) b_and!683)))

(declare-fun m!25723 () Bool)

(assert (=> b!17296 m!25723))

(assert (=> b!17296 m!25723))

(declare-fun m!25725 () Bool)

(assert (=> b!17296 m!25725))

(declare-fun m!25727 () Bool)

(assert (=> b!17295 m!25727))

(assert (=> b!17295 m!25727))

(declare-fun m!25729 () Bool)

(assert (=> b!17295 m!25729))

(declare-fun m!25731 () Bool)

(assert (=> b!17300 m!25731))

(assert (=> b!17300 m!25731))

(declare-fun m!25733 () Bool)

(assert (=> b!17300 m!25733))

(declare-fun m!25735 () Bool)

(assert (=> b!17305 m!25735))

(assert (=> b!17305 m!25735))

(declare-fun m!25737 () Bool)

(assert (=> b!17305 m!25737))

(declare-fun m!25739 () Bool)

(assert (=> start!3011 m!25739))

(declare-fun m!25741 () Bool)

(assert (=> b!17299 m!25741))

(assert (=> b!17299 m!25741))

(declare-fun m!25743 () Bool)

(assert (=> b!17299 m!25743))

(declare-fun m!25745 () Bool)

(assert (=> b!17292 m!25745))

(assert (=> b!17292 m!25745))

(declare-fun m!25747 () Bool)

(assert (=> b!17292 m!25747))

(declare-fun m!25749 () Bool)

(assert (=> b!17302 m!25749))

(assert (=> b!17302 m!25749))

(declare-fun m!25751 () Bool)

(assert (=> b!17302 m!25751))

(declare-fun m!25753 () Bool)

(assert (=> b!17297 m!25753))

(assert (=> b!17297 m!25753))

(declare-fun m!25755 () Bool)

(assert (=> b!17297 m!25755))

(declare-fun m!25757 () Bool)

(assert (=> b!17293 m!25757))

(assert (=> b!17293 m!25757))

(declare-fun m!25759 () Bool)

(assert (=> b!17293 m!25759))

(declare-fun m!25761 () Bool)

(assert (=> b!17301 m!25761))

(assert (=> b!17301 m!25761))

(declare-fun m!25763 () Bool)

(assert (=> b!17301 m!25763))

(declare-fun m!25765 () Bool)

(assert (=> b!17294 m!25765))

(assert (=> b!17294 m!25765))

(declare-fun m!25767 () Bool)

(assert (=> b!17294 m!25767))

(declare-fun m!25769 () Bool)

(assert (=> b!17303 m!25769))

(assert (=> b!17303 m!25769))

(declare-fun m!25771 () Bool)

(assert (=> b!17303 m!25771))

(declare-fun m!25773 () Bool)

(assert (=> b!17304 m!25773))

(assert (=> b!17304 m!25773))

(declare-fun m!25775 () Bool)

(assert (=> b!17304 m!25775))

(declare-fun m!25777 () Bool)

(assert (=> b!17306 m!25777))

(assert (=> b!17306 m!25777))

(declare-fun m!25779 () Bool)

(assert (=> b!17306 m!25779))

(check-sat (not b_lambda!7185) (not b_lambda!7173) (not b_next!73) (not b_lambda!7165) (not start!3011) (not b_lambda!7171) (not b_lambda!7181) (not b_lambda!7169) (not b_lambda!7175) (not b_lambda!7167) b_and!683 (not b_lambda!7177) (not b_lambda!7163) (not b_lambda!7187) (not b_lambda!7183) (not b_lambda!7189) (not b_lambda!7179))
(check-sat b_and!683 (not b_next!73))
